w = 25;
n = 19;
measures = [|3, 25,
|3, 19,
|3, 18,
|4, 13,
|3, 17,
|3, 14,
|3, 13,
|3, 11,
|3, 10,
|4, 7,
|3, 9,
|3, 8,
|3, 7,
|4, 5,
|3, 6,
|6, 3,
|3, 5,
|3, 4,
|3, 3,
|];
initial_x = [0, 3, 6, 9, 13, 16, 19, 22, 0, 3, 7, 10, 13, 16, 20, 0, 6, 9, 12];
initial_y = [0, 0, 0, 0, 0, 0, 0, 0, 25, 25, 25, 25, 25, 25, 25, 35, 35, 35, 35];